Test: fpga10_13_uns_rcr.cnf
Options: -no-inverting-opt -sym-var-bump
WARNING: for repeatability, setting FPU to use double precision
============================[ Problem Statistics ]=============================
|                                                                             |
|  Number of symmetries:           42                                         |
|  Number of invertingSyms:         0                                         |
|  Number of variables:           260                                         |
|  Number of clauses:            1586                                         |
|  Parse time:                   0.00 s                                       |
|                                                                             |
============================[ Search Statistics ]==============================
| Conflicts |          ORIGINAL         |          LEARNT          | Progress |
|           |    Vars  Clauses Literals |    Limit  Clauses Lit/Cl |          |
===============================================================================
|       100 |     260     1586     3380 |      581      186     32 |  0.001 % |
|       250 |     260     1586     3380 |      639      440     34 |  0.001 % |
|       475 |     260     1586     3380 |      703      465     36 |  0.001 % |
|       812 |     260     1586     3380 |      774      685     38 |  0.001 % |
|      1318 |     260     1586     3380 |      851      741     35 |  0.001 % |
|      2077 |     260     1586     3380 |      936      654     35 |  0.001 % |
===============================================================================
restarts              : 15
conflicts             : 3133           (43511 /sec)
symconflicts          : 417            (5791 /sec)
decisions             : 4912           (0.00 % random) (68218 /sec)
propagations          : 67995          (944323 /sec)
sympropagations       : 2543           (35317 /sec)
conflict literals     : 121994         (6.87 % deleted)
literals     : 121994         (6.87 % deleted)

HEURISTIC USAGES
random                : 0           
activity w/ lookahead : 0           
activity no lookahead : 0           
original sp           : 4912        
sym count             : 0           

Memory used           : 6.00 MB
CPU time              : 0.072004 s

UNSATISFIABLE
